000 000 000 000 -99 -99 000 000 -99 -99 -99 -99 -99 000 000 -99 -99 -99 -99 000 -99 -99 -99 000 000 000 000 -99 -99 -99 000
000 000 000 000 000 -99 000 000 -99 -99 -99 -99 -99 000 000 000 -99 -99 -99 000 000 -99 -99 -99 000 000 000 -99 -99 -99 000
000 000 000 000 000 000 000 000 000 -99 -99 -99 -99 -99 000 000 -99 -99 -99 -99 000 -99 -99 -99 -99 000 000 000 000 -99 -99
000 000 000 000 000 000 000 000 000 000 -99 -99 -99 -99 000 000 -99 -99 -99 000 000 -99 -99 000 -99 000 000 -99 000 000 -99
000 000 000 000 000 000 000 000 000 000 -99 -99 000 000 000 000 -99 -99 -99 -99 000 000 -99 000 000 000 000 -99 -99 000 -99
000 000 000 000 000 000 000 000 000 000 -99 -99 000 -99 000 000 -99 -99 -99 -99 000 000 000 000 000 000 -99 -99 -99 -99 -99
000 000 000 000 000 000 000 000 000 000 -99 -99 -99 000 000 000 -99 000 -99 -99 000 000 000 000 000 000 -99 -99 -99 -99 000
000 000 000 000 000 000 000 000 000 -99 000 -99 -99 -99 -99 -99 000 000 -99 -99 000 000 000 000 000 000 -99 -99 -99 000 000
000 000 000 000 000 000 000 000 000 000 000 000 -99 -99 -99 -99 000 000 000 -99 000 000 000 000 000 000 -99 -99 -99 000 000
000 000 000 000 000 000 -99 000 000 000 000 000 -99 -99 -99 -99 -99 000 000 -99 000 000 -99 -99 000 000 000 000 000 000 000
000 000 000 000 000 -99 000 000 000 000 000 000 000 -99 -99 000 000 000 000 000 -99 -99 -99 -99 000 000 000 000 000 000 000
000 000 000 000 000 000 000 000 000 000 000 000 -99 -99 -99 000 000 000 000 000 -99 -99 -99 000 000 000 000 000 000 000 000
000 000 000 000 000 000 000 000 000 -99 000 -99 -99 -99 -99 000 000 000 000 -99 -99 -99 -99 -99 000 000 000 -99 000 000 000
000 000 000 000 000 000 000 000 -99 -99 -99 -99 -99 -99 -99 -99 000 000 000 -99 -99 000 -99 -99 000 000 000 -99 000 000 000
000 000 000 000 000 000 000 000 -99 -99 -99 -99 -99 000 -99 -99 -99 -99 000 -99 -99 000 -99 -99 000 000 000 -99 000 000 000
000 -99 -99 000 000 000 000 000 -99 -99 -99 -99 -99 000 000 -99 -99 -99 000 -99 -99 000 000 -99 000 000 000 000 000 000 000
000 -99 -99 -99 000 000 000 000 000 -99 -99 -99 -99 000 000 -99 -99 000 -99 -99 -99 -99 000 000 000 000 000 000 000 000 000
000 000 000 -99 -99 -99 000 000 000 -99 -99 -99 -99 000 000 -99 000 000 -99 -99 -99 000 000 -99 -99 000 000 000 000 000 000
000 000 000 -99 -99 -99 -99 000 000 -99 -99 -99 -99 -99 000 000 000 000 -99 -99 -99 000 000 -99 -99 000 000 000 -99 000 -99
000 000 000 000 -99 -99 -99 -99 000 -99 -99 -99 -99 -99 000 000 000 000 000 -99 -99 000 000 -99 -99 -99 -99 -99 -99 000 -99
000 000 000 000 000 000 -99 -99 000 000 -99 -99 -99 -99 000 000 000 000 000 -99 -99 000 000 -99 -99 -99 -99 -99 -99 -99 -99
000 000 000 000 000 000 000 000 000 000 -99 -99 -99 -99 000 000 000 000 000 000 000 000 000 -99 -99 -99 -99 -99 -99 -99 -99
000 000 000 000 000 000 000 000 000 -99 -99 -99 -99 -99 000 000 000 000 000 000 000 000 000 -99 -99 -99 -99 -99 -99 -99 -99
000 000 000 000 000 -99 000 000 000 -99 -99 -99 -99 000 000 000 000 000 000 000 000 000 000 -99 -99 -99 -99 -99 -99 -99 -99
000 000 000 000 000 -99 -99 000 000 -99 -99 -99 -99 000 000 000 000 000 000 000 000 000 000 -99 -99 -99 -99 -99 -99 -99 -99
000 000 000 000 000 000 000 000 000 000 -99 -99 -99 000 000 000 000 000 000 000 000 -99 000 -99 -99 -99 -99 -99 -99 000 000
000 000 000 000 000 000 000 000 000 000 -99 -99 -99 -99 -99 -99 000 000 000 000 -99 000 -99 -99 -99 -99 -99 -99 -99 000 000
000 000 -99 000 000 000 000 000 000 000 -99 -99 -99 -99 000 000 000 000 000 -99 000 000 -99 -99 -99 -99 -99 -99 -99 -99 000
000 000 000 -99 000 000 000 000 000 -99 -99 -99 -99 000 000 -99 000 000 000 000 000 000 -99 -99 -99 -99 -99 -99 -99 -99 000
000 000 000 -99 -99 000 000 000 000 -99 -99 -99 -99 000 000 000 000 000 000 000 000 000 -99 -99 -99 -99 -99 -99 -99 -99 -99
000 000 000 -99 000 000 000 000 000 -99 -99 -99 -99 000 000 000 000 000 000 000 -99 000 -99 000 -99 -99 -99 -99 -99 -99 -99
000 000 000 000 000 000 000 000 000 000 -99 -99 -99 000 000 000 000 000 000 -99 -99 000 -99 000 -99 -99 -99 -99 -99 -99 000
000 000 000 000 000 000 000 000 000 000 -99 -99 -99 000 000 -99 000 000 000 -99 -99 -99 000 000 000 000 -99 -99 -99 -99 000
000 000 000 000 000 000 000 000 000 000 -99 -99 -99 -99 000 000 000 000 000 -99 -99 -99 000 000 000 000 -99 -99 000 000 000
000 000 000 000 000 000 000 000 000 000 000 -99 -99 000 000 000 000 000 -99 -99 000 -99 000 000 000 000 000 -99 000 000 -99
000 000 000 000 000 000 000 000 000 000 000 -99 -99 000 000 000 000 000 -99 000 000 000 000 000 000 000 000 000 000 -99 -99
000 000 000 000 000 000 000 000 000 000 -99 -99 -99 000 000 000 000 -99 -99 -99 000 000 000 000 000 000 000 000 000 -99 -99
000 -99 000 000 000 -99 -99 000 -99 -99 -99 -99 000 000 000 000 000 -99 000 -99 000 000 000 000 000 000 000 -99 -99 -99 -99
000 -99 000 000 -99 -99 -99 000 000 -99 -99 -99 000 000 000 000 000 -99 -99 -99 000 000 000 000 000 000 000 000 -99 -99 -99
-99 -99 000 000 -99 -99 -99 000 -99 -99 -99 000 000 000 000 000 000 -99 -99 -99 000 -99 000 000 000 000 000 -99 -99 -99 -99
-99 000 000 000 -99 -99 -99 000 -99 -99 000 000 000 -99 000 000 -99 -99 000 -99 000 -99 000 000 -99 -99 000 -99 -99 -99 -99
000 000 -99 000 -99 -99 -99 -99 -99 -99 000 000 -99 000 000 000 -99 000 000 000 -99 -99 000 -99 000 000 -99 -99 -99 -99 -99
000 -99 -99 -99 -99 000 -99 -99 -99 -99 000 -99 000 000 000 000 000 000 000 000 000 -99 -99 -99 000 000 -99 -99 -99 -99 -99
000 -99 -99 -99 -99 000 000 -99 -99 -99 -99 000 000 000 000 000 -99 000 000 000 000 -99 -99 -99 000 000 -99 -99 -99 -99 -99
000 000 -99 -99 -99 -99 -99 -99 -99 -99 -99 000 000 000 000 000 000 000 000 000 000 -99 -99 000 000 -99 -99 -99 -99 -99 -99
-99 -99 -99 -99 -99 -99 -99 -99 -99 -99 -99 000 000 000 000 -99 000 001 006 004 -99 -99 -99 000 000 -99 -99 -99 -99 -99 -99
-99 -99 -99 -99 -99 -99 -99 -99 -99 -99 -99 000 000 -99 000 -99 -99 000 000 001 010 005 001 000 -99 -99 -99 -99 -99 -99 -99
-99 -99 -99 -99 -99 -99 -99 -99 -99 -99 -99 -99 -99 -99 -99 -99 -99 000 000 000 -99 004 001 002 000 000 -99 -99 -99 -99 -99
-99 -99 -99 -99 -99 -99 -99 -99 -99 -99 -99 -99 -99 000 -99 -99 -99 000 -99 000 000 000 000 000 000 000 000 000 -99 -99 -99
-99 -99 -99 -99 -99 -99 -99 -99 -99 -99 -99 -99 -99 000 000 -99 000 000 000 000 000 000 000 -99 -99 000 000 000 000 -99 -99
-99 -99 -99 -99 -99 -99 -99 -99 -99 -99 -99 -99 000 000 000 -99 -99 000 000 000 000 000 -99 -99 -99 -99 -99 -99 000 -99 000
-99 -99 -99 -99 -99 -99 -99 -99 -99 -99 -99 -99 000 000 -99 -99 000 000 000 000 000 -99 -99 -99 -99 -99 -99 -99 -99 -99 000
-99 -99 -99 -99 -99 -99 -99 -99 -99 -99 -99 -99 -99 -99 -99 -99 000 000 000 -99 000 -99 -99 -99 -99 -99 -99 -99 -99 000 001
-99 -99 -99 -99 -99 -99 -99 -99 -99 -99 -99 -99 -99 -99 -99 -99 000 000 000 000 -99 -99 -99 -99 -99 -99 -99 -99 000 002 002
-99 -99 -99 -99 -99 -99 -99 -99 -99 -99 -99 -99 -99 -99 -99 -99 -99 -99 -99 -99 -99 -99 -99 -99 -99 -99 -99 -99 000 003 003
